20449
21536
22110
22539
22820
23032
23167
23297
23386
23462
23548
23606
23706
23745
23803
23834
23882
23918
23954
23998
24044
24077
24129
24155
24212
24250
24282
24326
24354
24380
24394
24418
24430
24456
24481
24522
24549
24571
24600
24619
24644
24663
24688
24717
24742
24769
24787
24802
24815
24830
24849
24872
24895
24932
24980
24985
24985
24985
24985
24985
24985
24985
24985
24985
24985
24986
24986
24987
24988
24988
24989
24989
24989
24989
24989
24989
24989
24989
24989
24989
24989
24989
24989
24989
24989
24990
24990
24990
24991
24992
24992
24992
24992
24992
24992
24992
24992
24992
24992
